Traveling Salesman Problem/TSP_generados/Aleatorio1621103330_10.tsp
NAME: Aleatorio1621103330_10.tsp
COMMENT: Randomly generated scenario
TYPE: TSP
DIMENSION: 10
EDGE_WEIGHT_TYPE: ATT
NODE_COORD_SECTION
1 21.31 28.14
2 9.74 35.75
3 16.64 6.99
4 23.89 16.7
5 32.12 7.01
6 6.66 29.92
7 2.42 37.98
8 14.12 4.5
9 9.88 27.44
10 11.34 19.07
