Traveling Salesman Problem/TSP_generados/Aleatorio1621103330_10.opt.tour
NAME: Aleatorio1621103330_10.opt.tour
COMMENT: Optimal solution for Aleatorio1621103330_10 (101.46460567954074)
TYPE: TOUR
DIMENSION: 10
TOUR_SECTION
1 2 7 6 9 10 8 3 5 4
-1
EOF
